177
1 11 7 8 10 6 12 9 3 2 5 4 1
1963
1 9 11 2 12 8 14 7 5 13 10 15 6 4 3 1
347
1 8 18 2 11 12 4 3 14 16 5 6 17 9 15 13 20 10 19 7 1
278
1 21 12 3 24 13 10 19 2 15 14 8 7 9 6 5 22 25 17 4 20 11 18 16 23 1
278
1 21 12 3 24 13 10 19 2 15 14 8 7 9 6 5 22 25 17 4 20 11 18 16 23 1
177
1 11 7 8 10 6 12 9 3 2 5 4 1
1963
1 9 11 2 12 8 14 7 5 13 10 15 6 4 3 1
347
1 8 18 2 11 12 4 3 14 16 5 6 17 9 15 13 20 10 19 7 1
278
1 21 12 3 24 13 10 19 2 15 14 8 7 9 6 5 22 25 17 4 20 11 18 16 23 1
